Version identifier: 22.1.0.0 | 2022-03-09 | 1a383f8ce
CPXPARAM_Threads                                 1
CPXPARAM_MIP_Strategy_VariableSelect             3
CPXPARAM_TimeLimit                               600
Tried aggregator 1 time.
Reduced MIP has 1825 rows, 10500 columns, and 83110 nonzeros.
Reduced MIP has 9000 binaries, 1500 generals, 0 SOSs, and 0 indicators.
Presolve time = 0.04 sec. (32.11 ticks)
Found incumbent of value 1.773000 after 0.11 sec. (80.77 ticks)
Tried aggregator 1 time.
Detecting symmetries...
Reduced MIP has 1825 rows, 10500 columns, and 83110 nonzeros.
Reduced MIP has 9000 binaries, 1500 generals, 0 SOSs, and 0 indicators.
Presolve time = 0.05 sec. (40.15 ticks)
Probing time = 0.01 sec. (4.54 ticks)
Clique table members: 304.
MIP emphasis: balance optimality and feasibility.
MIP search method: dynamic search.
Parallel mode: none, using 1 thread.
Root relaxation solution time = 1.45 sec. (1554.24 ticks)

        Nodes                                         Cuts/
   Node  Left     Objective  IInf  Best Integer    Best Bound    ItCnt     Gap

*     0+    0                            1.7730        0.0000           100.00%
      0     0        0.0000  1416        1.7730        0.0000     5149  100.00%
      0     0        0.0000   704        1.7730   ZeroHalf: 3     5511  100.00%
      0     0        0.0000   932        1.7730      Cuts: 79     9609  100.00%
*     0+    0                            0.0500        0.0000           100.00%
*     0+    0                            0.0420        0.0000           100.00%
*     0+    0                            0.0350        0.0000           100.00%
*     0+    0                            0.0280        0.0000           100.00%
*     0+    0                            0.0240        0.0000           100.00%
*     0+    0                            0.0190        0.0000           100.00%
      0     0  -1.00000e+75     0        0.0190        0.0000     9609  100.00%
Detecting symmetries...
      0     2        0.0000   475        0.0190        0.0000     9609  100.00%
Elapsed time = 40.31 sec. (45438.68 ticks, tree = 0.01 MB, solutions = 7)
      1     3        0.0000   770        0.0190        0.0000    20209  100.00%
      2     4        0.0000   691        0.0190        0.0000    25572  100.00%
      3     5        0.0000  1119        0.0190        0.0000    31440  100.00%
      4     6        0.0000   723        0.0190        0.0000    31501  100.00%
      5     7        0.0000   727        0.0190        0.0000    34857  100.00%
      6     8        0.0000   718        0.0190        0.0000    34862  100.00%
      7     9        0.0000   841        0.0190        0.0000    36584  100.00%
      8    10        0.0000   708        0.0190        0.0000    43571  100.00%
      9    11        0.0000   900        0.0190        0.0000    49326  100.00%
     11    13        0.0000   919        0.0190        0.0000    53804  100.00%
Elapsed time = 61.20 sec. (68689.47 ticks, tree = 0.12 MB, solutions = 7)
     13    15        0.0000   656        0.0190        0.0000    61896  100.00%
     14    16        0.0000  1226        0.0190        0.0000    79154  100.00%
     16    18        0.0000   638        0.0190        0.0000    85261  100.00%
     17    19        0.0000   852        0.0190        0.0000    89893  100.00%
     19    21        0.0000   656        0.0190        0.0000    96943  100.00%
     20    22        0.0000   929        0.0190        0.0000   102700  100.00%
     21    23        0.0000   619        0.0190        0.0000   110862  100.00%
     24    26       -0.0000   549        0.0190        0.0000   120426  100.00%
     26    28       -0.0000   682        0.0190        0.0000   125343  100.00%
     28    30        0.0000   657        0.0190        0.0000   133091  100.00%
Elapsed time = 82.02 sec. (90491.24 ticks, tree = 0.40 MB, solutions = 7)
     30    32        0.0000   462        0.0190        0.0000   141361  100.00%
     32    34       -0.0000   389        0.0190        0.0000   150391  100.00%
     34    36        0.0000   768        0.0190        0.0000   158448  100.00%
     35    37        0.0000   401        0.0190        0.0000   162304  100.00%
     36    38        0.0000   407        0.0190        0.0000   166467  100.00%
     37    39       -0.0000   431        0.0190        0.0000   171875  100.00%
     38    40        0.0000   507        0.0190        0.0000   185614  100.00%
     39    41       -0.0000   918        0.0190        0.0000   193189  100.00%
     40    42       -0.0000   810        0.0190        0.0000   198689  100.00%
     42    44        0.0000   832        0.0190        0.0000   207994  100.00%
Elapsed time = 116.23 sec. (127128.69 ticks, tree = 0.54 MB, solutions = 7)
     43    45       -0.0000   738        0.0190        0.0000   211650  100.00%
     44    46       -0.0000   752        0.0190        0.0000   215837  100.00%
     45    47       -0.0000   734        0.0190        0.0000   219249  100.00%
     46    48       -0.0000  1016        0.0190        0.0000   224073  100.00%
     47    49       -0.0000   953        0.0190        0.0000   231878  100.00%
     48    50        0.0000   946        0.0190        0.0000   237068  100.00%
     50    52       -0.0000  1054        0.0190        0.0000   252404  100.00%
     51    53       -0.0000   996        0.0190        0.0000   257556  100.00%
     53    55        0.0000   975        0.0190        0.0000   262228  100.00%
     54    56        0.0000   996        0.0190        0.0000   271194  100.00%
Elapsed time = 141.89 sec. (154002.38 ticks, tree = 0.65 MB, solutions = 7)
     56    58       -0.0000  1027        0.0190        0.0000   281912  100.00%
     57    59       -0.0000   987        0.0190        0.0000   289680  100.00%
     59    61        0.0000  1016        0.0190        0.0000   306837  100.00%
     61    63        0.0000  1039        0.0190        0.0000   316920  100.00%
     63    65       -0.0000  1031        0.0190        0.0000   320345  100.00%
     64    66       -0.0000  1031        0.0190        0.0000   328601  100.00%
     67    69        0.0000  1016        0.0190        0.0000   340255  100.00%
     68    70        0.0000  1077        0.0190        0.0000   351402  100.00%
     70    72        0.0000  1008        0.0190        0.0000   356917  100.00%
     71    73        0.0000  1019        0.0190        0.0000   364840  100.00%
Elapsed time = 159.84 sec. (171586.23 ticks, tree = 0.97 MB, solutions = 7)
     73    75       -0.0000   998        0.0190        0.0000   375194  100.00%
     75    77       -0.0000  1023        0.0190        0.0000   387808  100.00%
     77    79       -0.0000   998        0.0190        0.0000   391964  100.00%
     79    81        0.0000  1024        0.0190        0.0000   409245  100.00%
     81    83       -0.0000  1009        0.0190        0.0000   414330  100.00%
     82    84        0.0000  1006        0.0190        0.0000   429061  100.00%
     84    86       -0.0000   965        0.0190        0.0000   441668  100.00%
     86    88        0.0000   815        0.0190        0.0000   468460  100.00%
     88    90       -0.0000   744        0.0190        0.0000   472802  100.00%
     89    91       -0.0000   821        0.0190        0.0000   476470  100.00%
Elapsed time = 180.42 sec. (191631.97 ticks, tree = 1.27 MB, solutions = 7)
     90    92       -0.0000   762        0.0190        0.0000   484280  100.00%
     91    93        0.0000   769        0.0190        0.0000   484658  100.00%
     92    94       -0.0000   670        0.0190        0.0000   491414  100.00%
     93    95       -0.0000   651        0.0190        0.0000   495996  100.00%
     94    96       -0.0000   587        0.0190        0.0000   505147  100.00%
     96    98       -0.0000   544        0.0190        0.0000   513251  100.00%
     98   100       -0.0000   614        0.0190        0.0000   517042  100.00%
     99   101       -0.0000   478        0.0190        0.0000   520562  100.00%
    100   102        0.0000   442        0.0190        0.0000   521706  100.00%
    101   103       -0.0000   473        0.0190        0.0000   524900  100.00%
Elapsed time = 200.89 sec. (213883.24 ticks, tree = 1.45 MB, solutions = 7)
    102   104       -0.0000   669        0.0190        0.0000   529508  100.00%
    103   105       -0.0000   391        0.0190        0.0000   533403  100.00%
    105   107       -0.0000   658        0.0190        0.0000   537564  100.00%
    107   109        0.0000   451        0.0190        0.0000   542618  100.00%
    108   110       -0.0000   478        0.0190        0.0000   547206  100.00%
    109   111       -0.0000   744        0.0190        0.0000   550955  100.00%
    110   112       -0.0000   674        0.0190        0.0000   558071  100.00%
    111   113        0.0000   613        0.0190        0.0000   560681  100.00%
    113   115       -0.0000   569        0.0190        0.0000   564773  100.00%
    115   117       -0.0000   598        0.0190        0.0000   567504  100.00%
Elapsed time = 227.35 sec. (241087.26 ticks, tree = 1.67 MB, solutions = 7)
    116   118       -0.0000   568        0.0190        0.0000   570810  100.00%
    117   119       -0.0000   663        0.0190        0.0000   574189  100.00%
    118   120       -0.0000   546        0.0190        0.0000   577196  100.00%
    120   122       -0.0000   537        0.0190        0.0000   580169  100.00%
    121   123       -0.0000   548        0.0190        0.0000   582996  100.00%
    122   124       -0.0000   519        0.0190        0.0000   585098  100.00%
    124   126       -0.0000   530        0.0190        0.0000   587348  100.00%
    125   127       -0.0000   488        0.0190        0.0000   590542  100.00%
    126   128        0.0000   491        0.0190        0.0000   592919  100.00%
    127   129        0.0000   612        0.0190        0.0000   595591  100.00%
Elapsed time = 240.32 sec. (254480.98 ticks, tree = 1.91 MB, solutions = 7)
    128   130        0.0000   442        0.0190        0.0000   597329  100.00%
    130   132        0.0000   467        0.0190        0.0000   600142  100.00%
    131   133       -0.0000   437        0.0190        0.0000   604451  100.00%
    132   134       -0.0000   390        0.0190        0.0000   607191  100.00%
    133   135       -0.0000   410        0.0190        0.0000   609343  100.00%
    134   136       -0.0000   438        0.0190        0.0000   614579  100.00%
    135   137       -0.0000   464        0.0190        0.0000   618707  100.00%
    136   138       -0.0000   404        0.0190        0.0000   621115  100.00%
    138   140       -0.0000   446        0.0190        0.0000   625569  100.00%
    140   142        0.0000   493        0.0190        0.0000   630978  100.00%
Elapsed time = 259.71 sec. (274422.29 ticks, tree = 2.12 MB, solutions = 7)
    144   146        0.0000   378        0.0190        0.0000   639767  100.00%
    147   149       -0.0000   525        0.0190        0.0000   652035  100.00%
    151   153       -0.0000   399        0.0190        0.0000   662017  100.00%
    155   157        0.0000   478        0.0190        0.0000   673521  100.00%
    158   160       -0.0000   409        0.0190        0.0000   690103  100.00%
    160   162        0.0001   726        0.0190        0.0000   698390  100.00%
    162   164        0.0000   369        0.0190        0.0000   708710  100.00%
    165   167        0.0000   502        0.0190        0.0000   720074  100.00%
    167   169        0.0001   646        0.0190        0.0000   731294  100.00%
    170   172       -0.0000   375        0.0190        0.0000   742718  100.00%
Elapsed time = 302.31 sec. (318381.47 ticks, tree = 2.59 MB, solutions = 7)
    173   175       -0.0000   455        0.0190        0.0000   752227  100.00%
    177   179        0.0001   762        0.0190        0.0000   764269  100.00%
    181   183       -0.0000   427        0.0190        0.0000   771944  100.00%
    185   187        0.0000   419        0.0190        0.0000   782361  100.00%
    188   190        0.0000   419        0.0190        0.0000   792613  100.00%
    190   192        0.0001   823        0.0190        0.0000   800836  100.00%
    193   195        0.0000   856        0.0190        0.0000   813392  100.00%
    196   198        0.0000   598        0.0190        0.0000   821722  100.00%
    200   202        0.0000   411        0.0190        0.0000   832356  100.00%
    203   205       -0.0000   550        0.0190        0.0000   846403  100.00%
Elapsed time = 346.84 sec. (364770.69 ticks, tree = 3.09 MB, solutions = 7)
    206   208       -0.0000   545        0.0190        0.0000   857583  100.00%
    209   211       -0.0000   489        0.0190        0.0000   883447  100.00%
    211   213        0.0001   773        0.0190        0.0000   895997  100.00%
    213   215        0.0000   805        0.0190        0.0000   939751  100.00%
    216   218       -0.0000   543        0.0190        0.0000   952740  100.00%
    219   221        0.0000   550        0.0190        0.0000   963944  100.00%
    222   224       -0.0000   511        0.0190        0.0000   970691  100.00%
    224   226        0.0000   580        0.0190        0.0000   985330  100.00%
    229   231        0.0001   668        0.0190        0.0000   994357  100.00%
    233   235        0.0002   665        0.0190        0.0000  1004709  100.00%
Elapsed time = 392.66 sec. (411434.19 ticks, tree = 3.46 MB, solutions = 7)
    237   239        0.0003   665        0.0190        0.0000  1015232  100.00%
    240   242        0.0003   656        0.0190        0.0000  1023968  100.00%
    243   245        0.0003   761        0.0190        0.0000  1038658  100.00%
    247   249        0.0004   763        0.0190        0.0000  1051150  100.00%
    251   253        0.0004   670        0.0190        0.0000  1063580  100.00%
    255   257        0.0012   752        0.0190        0.0000  1073348  100.00%
    259   261        0.0008   975        0.0190        0.0000  1081866  100.00%
    263   265        0.0005   817        0.0190        0.0000  1091587  100.00%
    267   269        0.0005   754        0.0190        0.0000  1103258  100.00%
    272   274        0.0009   970        0.0190        0.0000  1115373  100.00%
Elapsed time = 434.99 sec. (456189.27 ticks, tree = 3.63 MB, solutions = 7)
    277   279        0.0005   744        0.0190        0.0000  1125885  100.00%
    280   282        0.0012   678        0.0190        0.0000  1132575  100.00%
    284   286        0.0030   635        0.0190        0.0000  1144908  100.00%
    289   291        0.0012   731        0.0190        0.0000  1155885  100.00%
    293   295        0.0006  1044        0.0190        0.0000  1164499  100.00%
    297   299        0.0006   857        0.0190        0.0000  1173521  100.00%
    300   302        0.0011   664        0.0190        0.0000  1180470  100.00%
    305   307        0.0020   523        0.0190        0.0000  1190231  100.00%
    310   312        0.0009   772        0.0190        0.0000  1200374  100.00%
    315   317        0.0012   692        0.0190        0.0000  1209751  100.00%
Elapsed time = 479.52 sec. (503878.45 ticks, tree = 3.80 MB, solutions = 7)
    320   322        0.0012   679        0.0190        0.0000  1218510  100.00%
    324   326        0.0013   624        0.0190        0.0000  1228675  100.00%
    329   331        0.0018   713        0.0190        0.0000  1238865  100.00%
    334   336        0.0019   565        0.0190        0.0000  1249008  100.00%
    339   341        0.0015   724        0.0190        0.0000  1256343  100.00%
    342   344        0.0018   974        0.0190        0.0000  1262813  100.00%
    346   348        0.0019   782        0.0190        0.0000  1274194  100.00%
    352   354        0.0031   616        0.0190        0.0000  1281828  100.00%
    356   358        0.0040   415        0.0190        0.0000  1291305  100.00%
    359   361        0.0040   368        0.0190        0.0000  1302447  100.00%
Elapsed time = 521.76 sec. (548483.22 ticks, tree = 3.99 MB, solutions = 7)
    363   365        0.0040   318        0.0190        0.0000  1317646  100.00%
    367   369        0.0040   275        0.0190        0.0000  1333854  100.00%
    370   372        0.0040   265        0.0190        0.0000  1344664  100.00%
    374   376        0.0040   339        0.0190        0.0000  1359927  100.00%
    377   379        0.0041   535        0.0190        0.0000  1372945  100.00%
    380   382        0.0040   535        0.0190        0.0000  1384560  100.00%
    387   389        0.0040   442        0.0190        0.0000  1391235  100.00%
    392   394        0.0050   321        0.0190        0.0000  1401781  100.00%
    396   398        0.0050   359        0.0190        0.0000  1414110  100.00%
Starting limited solution polishing.
    400   402        0.0050   341        0.0190        0.0000  1427670  100.00%
Elapsed time = 567.20 sec. (594736.04 ticks, tree = 4.15 MB, solutions = 7)
    404   406        0.0050   452        0.0190        0.0000  1437998  100.00%
    408   410        0.0060   339        0.0190        0.0000  1448391  100.00%
    412   414        0.0060   367        0.0190        0.0000  1461465  100.00%
    417   419        0.0070   342        0.0190        0.0000  1472908  100.00%
    420   422        0.0070   322        0.0190        0.0000  1476399  100.00%
    425   427        0.0070   280        0.0190        0.0000  1488183  100.00%

Zero-half cuts applied:  13

Root node processing (before b&c):
  Real time             =   40.27 sec. (45406.93 ticks)
Sequential b&c:
  Real time             =  559.73 sec. (582290.75 ticks)
                          ------------
Total (root+branch&cut) =  600.00 sec. (627697.69 ticks)
Primal number of violations:	0.019
Dual number of violations:	0
Status:	Feasible
Time:	599.99
Sequence:
	4
	5
	16
	1
	0
	4
	13
	8
	0
	4
	13
	8
	14
	17
	11
	19
	18
	7
	13
	8
	12
	17
	13
	19
	18
	5
	20
	15
	10
	22
	20
	15
	10
	21
	24
	1
	10
	2
	23
	15
	9
	21
	16
	1
	9
	2
	20
	15
	9
	1
	0
	6
	9
	15
	9
	6
	0
	3
	18
	1
	10
	15
	10
	11
	17
	20
	17
	20
	4
	15
	10
	6
	17
	11
	17
	13
	21
	24
	22
	23
	2
	20
	5
	24
	21
	23
	2
	23
	5
	16
	5
	24
	21
	23
	2
	23
	21
	24
	22
	20
	5
	16
	5
	23
	2
	23
	21
	24
	1
	10
	2
	11
	3
	0
	4
	13
	15
	9
	21
	24
	6
	9
	15
	10
	15
	10
	1
	18
	19
	14
	8
	12
	19
	18
	19
	14
	8
	12
	19
	18
	19
	18
	3
	0
	3
	14
	8
	12
	19
	18
	19
	12
	8
	0
	3
	0
	1
	0
	3
	14
	8
	11
	7
	18
	19
	11
	17
	21
	20
	1
	16
	12
	16
	12
	1
	10
	8
	0
	4
	0
	3
	11
	2
	12
	20
	15
	4
	21
	24
	6
	9
	22
	20
	15
	10
	21
	24
	1
	9
	2
	20
	15
	9
	21
	8
	13
	4
	0
	3
	11
	2
	9
	6
	24
	21
	9
	15
	13
	4
	0
	3
	13
	17
	14
	3
	15
	10
	21
	24
	1
	9
	2
	20
	15
	9
	5
	16
	6
	4
	18
	8
	13
	7
	18
	8
	11
	7
	0
	3
	11
	17
	7
	16
	15
	12
	17
	6
	19
	18
	4
	15
	20
	21
	17
	11
	19
	0
	17
	13
	3
	0
	4
	13
	15
	9
	21
	24
	6
	4
	22
	16
	1
	10
	22
	23
	6
	17
	14
	8
	11
	7
	18
	19
	11
	17
	14
	1
	16
	5
	9
